
******************************************************************************
This program contains Ipopt, a library for large-scale nonlinear optimization.
 Ipopt is released as open source code under the Eclipse Public License (EPL).
         For more information visit http://projects.coin-or.org/Ipopt

This version of Ipopt was compiled from source code available at
    https://github.com/IDAES/Ipopt as part of the Institute for the Design of
    Advanced Energy Systems Process Systems Engineering Framework (IDAES PSE
    Framework) Copyright (c) 2018-2019. See https://github.com/IDAES/idaes-pse.

This version of Ipopt was compiled using HSL, a collection of Fortran codes
    for large-scale scientific computation.  All technical papers, sales and
    publicity material resulting from use of the HSL codes within IPOPT must
    contain the following acknowledgement:
        HSL, a collection of Fortran codes for large-scale scientific
        computation. See http://www.hsl.rl.ac.uk.
******************************************************************************

This is Ipopt version 3.13.2, running with linear solver ma27.

Number of nonzeros in equality constraint Jacobian...:      914
Number of nonzeros in inequality constraint Jacobian.:        0
Number of nonzeros in Lagrangian Hessian.............:      918

Total number of variables............................:      378
                     variables with only lower bounds:      108
                variables with lower and upper bounds:      216
                     variables with only upper bounds:        0
Total number of equality constraints.................:      376
Total number of inequality constraints...............:        0
        inequality constraints with only lower bounds:        0
   inequality constraints with lower and upper bounds:        0
        inequality constraints with only upper bounds:        0

iter    objective    inf_pr   inf_du lg(mu)  ||d||  lg(rg) alpha_du alpha_pr  ls
   0  0.0000000e+00 6.17e-01 3.09e-14  -1.0 0.00e+00    -  0.00e+00 0.00e+00   0
   1  1.9148076e-01 2.80e-01 1.84e+04  -1.0 7.40e+04    -  6.64e-01 5.47e-01h  1
   2  1.9650347e-01 2.76e-01 1.83e+04  -1.0 3.08e+04    -  8.80e-01 1.46e-02h  1
   3  1.7035210e+00 1.73e-01 1.19e+04  -1.0 1.90e+05    -  7.80e-01 3.93e-01h  1
   4  1.2541792e+01 1.45e-02 5.19e+02  -1.0 1.44e+05    -  8.48e-01 9.90e-01h  1
   5  1.3883052e+01 2.53e-04 4.16e+02  -1.0 1.23e+04    -  9.81e-01 9.90e-01h  1
   6  1.3229933e+01 3.87e-04 1.17e+02  -1.0 2.27e+04    -  9.90e-01 9.90e-01H  1
   7  1.3043970e+01 2.60e-04 4.68e+03  -1.0 1.54e+04    -  9.90e-01 9.90e-01H  1
   8  1.2829574e+01 8.34e-04 5.65e+08  -1.7 2.66e+04    -  9.93e-01 2.26e-01f  3
   9  1.2726950e+01 9.78e-04 1.33e+09  -1.7 2.72e+04    -  1.00e+00 1.24e-01h  4
iter    objective    inf_pr   inf_du lg(mu)  ||d||  lg(rg) alpha_du alpha_pr  ls
  10  1.2681360e+01 9.77e-04 2.27e+09  -1.7 2.52e+04    -  1.00e+00 6.19e-02h  5
  11  1.2660176e+01 9.61e-04 3.32e+09  -1.7 2.37e+04    -  1.00e+00 3.09e-02h  6
  12  1.2650011e+01 9.49e-04 4.45e+09  -1.7 2.28e+04    -  1.00e+00 1.55e-02h  7
  13  1.2645039e+01 9.43e-04 5.62e+09  -1.7 2.24e+04    -  1.00e+00 7.73e-03h  8
  14  1.2644425e+01 9.42e-04 6.84e+09  -1.7 2.21e+04    -  1.00e+00 9.67e-04h 11
  15  1.2644119e+01 9.41e-04 8.06e+09  -1.7 2.21e+04    -  1.00e+00 4.83e-04h 12
  16  1.2605225e+01 9.37e-04 8.71e+09  -1.7 2.20e+04    -  1.00e+00 6.19e-02h  5
  17  1.2569066e+01 9.31e-04 9.40e+09  -1.7 2.07e+04    -  1.00e+00 6.19e-02h  5
  18  1.2075636e+01 3.65e-02 1.08e+08  -1.7 1.95e+04    -  1.00e+00 9.90e-01w  1
  19  1.2057157e+01 2.73e-04 1.39e+09  -1.7 7.91e+02    -  1.00e+00 9.90e-01h  1
iter    objective    inf_pr   inf_du lg(mu)  ||d||  lg(rg) alpha_du alpha_pr  ls
  20  1.2056786e+01 2.58e-06 1.39e+11  -1.7 1.85e+01    -  1.00e+00 9.90e-01h  1
In iteration 20, 27 Slacks too small, adjusting variable bounds
  21  1.2056783e+01 2.58e-08 1.39e+13  -1.7 1.62e-01    -  1.00e+00 9.90e-01h  1
  22  1.2056783e+01 3.86e-11 1.13e-01  -1.7 1.62e-03    -  1.00e+00 1.00e+00h  1
  23  1.2056632e+01 9.40e-09 1.40e+13  -9.0 1.11e+04    -  9.85e-01 6.38e-04f 11
  24  1.2056482e+01 1.88e-08 1.42e+13  -9.0 1.04e+04    -  9.88e-01 6.79e-04f 11
  25  1.2056463e+01 1.89e-08 1.42e+13  -9.0 9.27e+03    -  9.95e-01 9.54e-05f 14
  26  1.2056461e+01 1.89e-08 1.42e+13  -9.0 8.55e+03    -  1.00e+00 1.29e-05f 17
  27  1.2056459e+01 1.89e-08 1.42e+13  -9.0 8.13e+03    -  1.00e+00 1.36e-05f 17
  28  1.1905075e+01 1.85e-02 1.16e+12  -9.0 7.89e+03    -  1.00e+00 9.18e-01f  1
  29  1.1897712e+01 1.32e-04 8.29e+09  -9.0 2.85e+02    -  1.00e+00 9.93e-01h  1
iter    objective    inf_pr   inf_du lg(mu)  ||d||  lg(rg) alpha_du alpha_pr  ls
  30  1.1897676e+01 3.11e-09 1.08e-04  -9.0 1.99e+00    -  1.00e+00 1.00e+00h  1
  31  1.1897676e+01 7.57e-11 1.16e-10  -9.0 3.38e-06    -  1.00e+00 1.00e+00h  1

Number of Iterations....: 31

                                   (scaled)                 (unscaled)
Objective...............:   1.1897675531874995e+01    1.1897675531874995e+01
Dual infeasibility......:   1.1641532182693481e-10    1.1641532182693481e-10
Constraint violation....:   7.5716988234830751e-11    7.5716988234830751e-11
Complementarity.........:   9.0910716695262897e-10    9.0910716695262897e-10
Overall NLP error.......:   7.5716988234830751e-11    9.0910716695262897e-10


Number of objective function evaluations             = 191
Number of objective gradient evaluations             = 32
Number of equality constraint evaluations            = 191
Number of inequality constraint evaluations          = 0
Number of equality constraint Jacobian evaluations   = 32
Number of inequality constraint Jacobian evaluations = 0
Number of Lagrangian Hessian evaluations             = 31
Total CPU secs in IPOPT (w/o function evaluations)   =      0.074
Total CPU secs in NLP function evaluations           =      1.756

EXIT: Optimal Solution Found.
